nNurses = 145;
nHours = 30;
minHours = 7;
maxHours = 18;
maxConsec = 11;
maxPresence = 9;
demand = [46, 44, 49, 44, 41, 42, 43, 45, 41, 43, 45, 48, 48, 48, 47, 44, 43, 40, 41, 46, 47, 45, 48, 46, 46, 48, 48, 48, 50, 48];
